
;this file is automatically generated: Mon Oct 04 22:33:09 IST 2021

;declarations generated

(declare-fun oclExcludes ( Int Int) Bool)
(declare-fun Cardinality ( Int) Int)
(declare-fun obj_cae3fe45_bb82_4e9f_b09e_ee6fef3ab717 ( Int) Int)
(declare-fun type_70d61b91_784c_4129_b296_126579469460_Class55 ( Int) Bool)
(declare-fun type_70d61b91_784c_4129_b296_126579469460_Class53 ( Int) Bool)
(declare-fun type_70d61b91_784c_4129_b296_126579469460_Class54 ( Int) Bool)
(declare-fun type_70d61b91_784c_4129_b296_126579469460_Class51 ( Int) Bool)
(declare-fun type_70d61b91_784c_4129_b296_126579469460_Class52 ( Int) Bool)
(declare-fun type_70d61b91_784c_4129_b296_126579469460_Class50 ( Int) Bool)
(declare-fun type_70d61b91_784c_4129_b296_126579469460_Class48 ( Int) Bool)
(declare-fun type_70d61b91_784c_4129_b296_126579469460_Class49 ( Int) Bool)
(declare-fun type_70d61b91_784c_4129_b296_126579469460_Class46 ( Int) Bool)
(declare-fun type_70d61b91_784c_4129_b296_126579469460_Class47 ( Int) Bool)
(declare-fun type_70d61b91_784c_4129_b296_126579469460_Class44 ( Int) Bool)
(declare-fun type_70d61b91_784c_4129_b296_126579469460_Class45 ( Int) Bool)
(declare-fun type_70d61b91_784c_4129_b296_126579469460_Class42 ( Int) Bool)
(declare-fun type_70d61b91_784c_4129_b296_126579469460_Class43 ( Int) Bool)
(declare-fun type_70d61b91_784c_4129_b296_126579469460_Class40 ( Int) Bool)
(declare-fun type_70d61b91_784c_4129_b296_126579469460_Class41 ( Int) Bool)
(declare-fun type_70d61b91_784c_4129_b296_126579469460_Class39 ( Int) Bool)
(declare-fun type_70d61b91_784c_4129_b296_126579469460_Class37 ( Int) Bool)
(declare-fun type_70d61b91_784c_4129_b296_126579469460_Class38 ( Int) Bool)
(declare-fun type_70d61b91_784c_4129_b296_126579469460_Class35 ( Int) Bool)
(declare-fun type_70d61b91_784c_4129_b296_126579469460_Class36 ( Int) Bool)
(declare-fun type_70d61b91_784c_4129_b296_126579469460_Class33 ( Int) Bool)
(declare-fun type_70d61b91_784c_4129_b296_126579469460_Class34 ( Int) Bool)
(declare-fun type_70d61b91_784c_4129_b296_126579469460_Class31 ( Int) Bool)
(declare-fun type_70d61b91_784c_4129_b296_126579469460_Class32 ( Int) Bool)
(declare-fun type_70d61b91_784c_4129_b296_126579469460_Class30 ( Int) Bool)
(declare-fun type_70d61b91_784c_4129_b296_126579469460_Class28 ( Int) Bool)
(declare-fun type_70d61b91_784c_4129_b296_126579469460_Class29 ( Int) Bool)
(declare-fun type_70d61b91_784c_4129_b296_126579469460_Class26 ( Int) Bool)
(declare-fun type_70d61b91_784c_4129_b296_126579469460_Class27 ( Int) Bool)
(declare-fun type_70d61b91_784c_4129_b296_126579469460_Class24 ( Int) Bool)
(declare-fun type_70d61b91_784c_4129_b296_126579469460_Class25 ( Int) Bool)
(declare-fun type_70d61b91_784c_4129_b296_126579469460_Class22 ( Int) Bool)
(declare-fun type_70d61b91_784c_4129_b296_126579469460_Class23 ( Int) Bool)
(declare-fun type_70d61b91_784c_4129_b296_126579469460_Class20 ( Int) Bool)
(declare-fun type_70d61b91_784c_4129_b296_126579469460_Class21 ( Int) Bool)
(declare-fun type_70d61b91_784c_4129_b296_126579469460_Class19 ( Int) Bool)
(declare-fun type_70d61b91_784c_4129_b296_126579469460_Class17 ( Int) Bool)
(declare-fun type_70d61b91_784c_4129_b296_126579469460_Class18 ( Int) Bool)
(declare-fun type_70d61b91_784c_4129_b296_126579469460_Class15 ( Int) Bool)
(declare-fun type_70d61b91_784c_4129_b296_126579469460_Class16 ( Int) Bool)
(declare-fun type_70d61b91_784c_4129_b296_126579469460_Class13 ( Int) Bool)
(declare-fun type_70d61b91_784c_4129_b296_126579469460_Class14 ( Int) Bool)
(declare-fun type_70d61b91_784c_4129_b296_126579469460_Class11 ( Int) Bool)
(declare-fun type_70d61b91_784c_4129_b296_126579469460_Class12 ( Int) Bool)
(declare-fun type_70d61b91_784c_4129_b296_126579469460_Class10 ( Int) Bool)
(declare-fun oclSelect ( Int Bool) Int)
(declare-fun class24_Class24IntAttr2 ( Int) Int)
(declare-fun class24_Class24IntAttr3 ( Int) Int)
(declare-fun Enum0 ( Int) Int)
(declare-fun Enum1 ( Int) Int)
(declare-fun Enum2 ( Int) Int)
(declare-fun container_ ( Int) Int)
(declare-fun type_70d61b91_784c_4129_b296_126579469460_Class5 ( Int) Bool)
(declare-fun type_70d61b91_784c_4129_b296_126579469460_Class4 ( Int) Bool)
(declare-fun type_70d61b91_784c_4129_b296_126579469460_Class3 ( Int) Bool)
(declare-fun type_70d61b91_784c_4129_b296_126579469460_Class2 ( Int) Bool)
(declare-fun type_70d61b91_784c_4129_b296_126579469460_Class9 ( Int) Bool)
(declare-fun type_70d61b91_784c_4129_b296_126579469460_Class8 ( Int) Bool)
(declare-fun type_70d61b91_784c_4129_b296_126579469460_Class7 ( Int) Bool)
(declare-fun type_70d61b91_784c_4129_b296_126579469460_Class6 ( Int) Bool)
(declare-fun oclIncludes ( Int Int) Bool)
(declare-fun type_70d61b91_784c_4129_b296_126579469460_Class1 ( Int) Bool)
(declare-fun type_70d61b91_784c_4129_b296_126579469460_Class0 ( Int) Bool)
(declare-fun class24_Class24BoolAttr1 ( Int) Bool)
(declare-fun class24_Class24BoolAttr0 ( Int) Bool)
(declare-fun ObjAt ( Int Int) Int)

;formula(s) generated
(assert (! (exists ((c1 Int)(c2 Int)) (and (and (and (and ( type_70d61b91_784c_4129_b296_126579469460_Class24 c1 )  ( type_70d61b91_784c_4129_b296_126579469460_Class25 c1 ) ) ( type_70d61b91_784c_4129_b296_126579469460_Class39 c1 ) ) (and (and ( type_70d61b91_784c_4129_b296_126579469460_Class24 c2 )  ( type_70d61b91_784c_4129_b296_126579469460_Class25 c2 ) ) ( type_70d61b91_784c_4129_b296_126579469460_Class39 c2 ) )) (forall ((v Int)) (=> (and (and ( type_70d61b91_784c_4129_b296_126579469460_Class24 v )  ( type_70d61b91_784c_4129_b296_126579469460_Class25 v ) ) ( type_70d61b91_784c_4129_b296_126579469460_Class39 v ) ) (<= ( class24_Class24IntAttr3 ( obj_cae3fe45_bb82_4e9f_b09e_ee6fef3ab717 v )  )  ( class24_Class24IntAttr2 ( obj_cae3fe45_bb82_4e9f_b09e_ee6fef3ab717 c1 )  ) ))))):named l0))
(assert (! (or (and (forall ((v Int)) (=> (and (and ( type_70d61b91_784c_4129_b296_126579469460_Class24 v )  ( type_70d61b91_784c_4129_b296_126579469460_Class25 v ) ) ( type_70d61b91_784c_4129_b296_126579469460_Class39 v ) ) ( class24_Class24BoolAttr0 ( obj_cae3fe45_bb82_4e9f_b09e_ee6fef3ab717 v )  ) )) (forall ((v Int)) (=> (and (and ( type_70d61b91_784c_4129_b296_126579469460_Class24 v )  ( type_70d61b91_784c_4129_b296_126579469460_Class25 v ) ) ( type_70d61b91_784c_4129_b296_126579469460_Class39 v ) ) ( class24_Class24BoolAttr1 ( obj_cae3fe45_bb82_4e9f_b09e_ee6fef3ab717 v )  ) ))) (and (forall ((v Int)) (=> (and (and ( type_70d61b91_784c_4129_b296_126579469460_Class24 v )  ( type_70d61b91_784c_4129_b296_126579469460_Class25 v ) ) ( type_70d61b91_784c_4129_b296_126579469460_Class39 v ) ) (= ( class24_Class24IntAttr2 ( obj_cae3fe45_bb82_4e9f_b09e_ee6fef3ab717 v )  )  19))) (forall ((v Int)) (=> (and (and ( type_70d61b91_784c_4129_b296_126579469460_Class24 v )  ( type_70d61b91_784c_4129_b296_126579469460_Class25 v ) ) ( type_70d61b91_784c_4129_b296_126579469460_Class39 v ) ) (not (= ( class24_Class24IntAttr2 ( obj_cae3fe45_bb82_4e9f_b09e_ee6fef3ab717 v )  )  8) ))))):named l1))
(assert (! (forall ((c4_2 Int)(c4_1 Int)) (=> (and (and (and ( type_70d61b91_784c_4129_b296_126579469460_Class24 c4_1 )  ( type_70d61b91_784c_4129_b296_126579469460_Class25 c4_1 ) ) ( type_70d61b91_784c_4129_b296_126579469460_Class39 c4_1 ) ) (and (and ( type_70d61b91_784c_4129_b296_126579469460_Class24 c4_2 )  ( type_70d61b91_784c_4129_b296_126579469460_Class25 c4_2 ) ) ( type_70d61b91_784c_4129_b296_126579469460_Class39 c4_2 ) )) (< ( class24_Class24IntAttr2 ( obj_cae3fe45_bb82_4e9f_b09e_ee6fef3ab717 c4_1 )  )  ( class24_Class24IntAttr3 ( obj_cae3fe45_bb82_4e9f_b09e_ee6fef3ab717 c4_2 )  ) ))):named l2))
(assert (! (forall ((v Int)) (=> (and (and ( type_70d61b91_784c_4129_b296_126579469460_Class24 v )  ( type_70d61b91_784c_4129_b296_126579469460_Class25 v ) ) ( type_70d61b91_784c_4129_b296_126579469460_Class39 v ) ) (<= ( class24_Class24IntAttr2 ( obj_cae3fe45_bb82_4e9f_b09e_ee6fef3ab717 v )  )  0))):named l3))
(assert (! (exists ((o Int)) ( type_70d61b91_784c_4129_b296_126579469460_Class0 ( obj_cae3fe45_bb82_4e9f_b09e_ee6fef3ab717 o )  ) ):named c0))
(assert (! (exists ((o Int)) (and (and (and (and (and ( type_70d61b91_784c_4129_b296_126579469460_Class1 ( obj_cae3fe45_bb82_4e9f_b09e_ee6fef3ab717 o )  )  ( type_70d61b91_784c_4129_b296_126579469460_Class45 ( obj_cae3fe45_bb82_4e9f_b09e_ee6fef3ab717 o )  ) ) ( type_70d61b91_784c_4129_b296_126579469460_Class12 ( obj_cae3fe45_bb82_4e9f_b09e_ee6fef3ab717 o )  ) ) ( type_70d61b91_784c_4129_b296_126579469460_Class33 ( obj_cae3fe45_bb82_4e9f_b09e_ee6fef3ab717 o )  ) ) ( type_70d61b91_784c_4129_b296_126579469460_Class22 ( obj_cae3fe45_bb82_4e9f_b09e_ee6fef3ab717 o )  ) ) ( type_70d61b91_784c_4129_b296_126579469460_Class39 ( obj_cae3fe45_bb82_4e9f_b09e_ee6fef3ab717 o )  ) )):named c1))
(assert (! (exists ((o Int)) (and (and (and (and (and (and (and (and (and ( type_70d61b91_784c_4129_b296_126579469460_Class10 ( obj_cae3fe45_bb82_4e9f_b09e_ee6fef3ab717 o )  )  ( type_70d61b91_784c_4129_b296_126579469460_Class45 ( obj_cae3fe45_bb82_4e9f_b09e_ee6fef3ab717 o )  ) ) ( type_70d61b91_784c_4129_b296_126579469460_Class12 ( obj_cae3fe45_bb82_4e9f_b09e_ee6fef3ab717 o )  ) ) ( type_70d61b91_784c_4129_b296_126579469460_Class55 ( obj_cae3fe45_bb82_4e9f_b09e_ee6fef3ab717 o )  ) ) ( type_70d61b91_784c_4129_b296_126579469460_Class33 ( obj_cae3fe45_bb82_4e9f_b09e_ee6fef3ab717 o )  ) ) ( type_70d61b91_784c_4129_b296_126579469460_Class22 ( obj_cae3fe45_bb82_4e9f_b09e_ee6fef3ab717 o )  ) ) ( type_70d61b91_784c_4129_b296_126579469460_Class29 ( obj_cae3fe45_bb82_4e9f_b09e_ee6fef3ab717 o )  ) ) ( type_70d61b91_784c_4129_b296_126579469460_Class39 ( obj_cae3fe45_bb82_4e9f_b09e_ee6fef3ab717 o )  ) ) ( type_70d61b91_784c_4129_b296_126579469460_Class50 ( obj_cae3fe45_bb82_4e9f_b09e_ee6fef3ab717 o )  ) ) ( type_70d61b91_784c_4129_b296_126579469460_Class41 ( obj_cae3fe45_bb82_4e9f_b09e_ee6fef3ab717 o )  ) )):named c2))
(assert (! (exists ((o Int)) ( type_70d61b91_784c_4129_b296_126579469460_Class11 ( obj_cae3fe45_bb82_4e9f_b09e_ee6fef3ab717 o )  ) ):named c3))
(assert (! (exists ((o Int)) (and (and (and ( type_70d61b91_784c_4129_b296_126579469460_Class12 ( obj_cae3fe45_bb82_4e9f_b09e_ee6fef3ab717 o )  )  ( type_70d61b91_784c_4129_b296_126579469460_Class33 ( obj_cae3fe45_bb82_4e9f_b09e_ee6fef3ab717 o )  ) ) ( type_70d61b91_784c_4129_b296_126579469460_Class22 ( obj_cae3fe45_bb82_4e9f_b09e_ee6fef3ab717 o )  ) ) ( type_70d61b91_784c_4129_b296_126579469460_Class39 ( obj_cae3fe45_bb82_4e9f_b09e_ee6fef3ab717 o )  ) )):named c4))
(assert (! (exists ((o Int)) (and (and (and (and (and (and (and (and (and ( type_70d61b91_784c_4129_b296_126579469460_Class13 ( obj_cae3fe45_bb82_4e9f_b09e_ee6fef3ab717 o )  )  ( type_70d61b91_784c_4129_b296_126579469460_Class45 ( obj_cae3fe45_bb82_4e9f_b09e_ee6fef3ab717 o )  ) ) ( type_70d61b91_784c_4129_b296_126579469460_Class12 ( obj_cae3fe45_bb82_4e9f_b09e_ee6fef3ab717 o )  ) ) ( type_70d61b91_784c_4129_b296_126579469460_Class55 ( obj_cae3fe45_bb82_4e9f_b09e_ee6fef3ab717 o )  ) ) ( type_70d61b91_784c_4129_b296_126579469460_Class33 ( obj_cae3fe45_bb82_4e9f_b09e_ee6fef3ab717 o )  ) ) ( type_70d61b91_784c_4129_b296_126579469460_Class22 ( obj_cae3fe45_bb82_4e9f_b09e_ee6fef3ab717 o )  ) ) ( type_70d61b91_784c_4129_b296_126579469460_Class29 ( obj_cae3fe45_bb82_4e9f_b09e_ee6fef3ab717 o )  ) ) ( type_70d61b91_784c_4129_b296_126579469460_Class39 ( obj_cae3fe45_bb82_4e9f_b09e_ee6fef3ab717 o )  ) ) ( type_70d61b91_784c_4129_b296_126579469460_Class50 ( obj_cae3fe45_bb82_4e9f_b09e_ee6fef3ab717 o )  ) ) ( type_70d61b91_784c_4129_b296_126579469460_Class41 ( obj_cae3fe45_bb82_4e9f_b09e_ee6fef3ab717 o )  ) )):named c5))
(assert (! (exists ((o Int)) (and (and (and (and (and (and (and (and (and ( type_70d61b91_784c_4129_b296_126579469460_Class14 ( obj_cae3fe45_bb82_4e9f_b09e_ee6fef3ab717 o )  )  ( type_70d61b91_784c_4129_b296_126579469460_Class45 ( obj_cae3fe45_bb82_4e9f_b09e_ee6fef3ab717 o )  ) ) ( type_70d61b91_784c_4129_b296_126579469460_Class12 ( obj_cae3fe45_bb82_4e9f_b09e_ee6fef3ab717 o )  ) ) ( type_70d61b91_784c_4129_b296_126579469460_Class55 ( obj_cae3fe45_bb82_4e9f_b09e_ee6fef3ab717 o )  ) ) ( type_70d61b91_784c_4129_b296_126579469460_Class33 ( obj_cae3fe45_bb82_4e9f_b09e_ee6fef3ab717 o )  ) ) ( type_70d61b91_784c_4129_b296_126579469460_Class22 ( obj_cae3fe45_bb82_4e9f_b09e_ee6fef3ab717 o )  ) ) ( type_70d61b91_784c_4129_b296_126579469460_Class29 ( obj_cae3fe45_bb82_4e9f_b09e_ee6fef3ab717 o )  ) ) ( type_70d61b91_784c_4129_b296_126579469460_Class39 ( obj_cae3fe45_bb82_4e9f_b09e_ee6fef3ab717 o )  ) ) ( type_70d61b91_784c_4129_b296_126579469460_Class50 ( obj_cae3fe45_bb82_4e9f_b09e_ee6fef3ab717 o )  ) ) ( type_70d61b91_784c_4129_b296_126579469460_Class41 ( obj_cae3fe45_bb82_4e9f_b09e_ee6fef3ab717 o )  ) )):named c6))
(assert (! (exists ((o Int)) ( type_70d61b91_784c_4129_b296_126579469460_Class15 ( obj_cae3fe45_bb82_4e9f_b09e_ee6fef3ab717 o )  ) ):named c7))
(assert (! (exists ((o Int)) (and (and (and (and (and ( type_70d61b91_784c_4129_b296_126579469460_Class16 ( obj_cae3fe45_bb82_4e9f_b09e_ee6fef3ab717 o )  )  ( type_70d61b91_784c_4129_b296_126579469460_Class45 ( obj_cae3fe45_bb82_4e9f_b09e_ee6fef3ab717 o )  ) ) ( type_70d61b91_784c_4129_b296_126579469460_Class12 ( obj_cae3fe45_bb82_4e9f_b09e_ee6fef3ab717 o )  ) ) ( type_70d61b91_784c_4129_b296_126579469460_Class33 ( obj_cae3fe45_bb82_4e9f_b09e_ee6fef3ab717 o )  ) ) ( type_70d61b91_784c_4129_b296_126579469460_Class22 ( obj_cae3fe45_bb82_4e9f_b09e_ee6fef3ab717 o )  ) ) ( type_70d61b91_784c_4129_b296_126579469460_Class39 ( obj_cae3fe45_bb82_4e9f_b09e_ee6fef3ab717 o )  ) )):named c8))
(assert (! (exists ((o Int)) ( type_70d61b91_784c_4129_b296_126579469460_Class17 ( obj_cae3fe45_bb82_4e9f_b09e_ee6fef3ab717 o )  ) ):named c9))
(assert (! (exists ((o Int)) (and (and (and ( type_70d61b91_784c_4129_b296_126579469460_Class18 ( obj_cae3fe45_bb82_4e9f_b09e_ee6fef3ab717 o )  )  ( type_70d61b91_784c_4129_b296_126579469460_Class25 ( obj_cae3fe45_bb82_4e9f_b09e_ee6fef3ab717 o )  ) ) ( type_70d61b91_784c_4129_b296_126579469460_Class24 ( obj_cae3fe45_bb82_4e9f_b09e_ee6fef3ab717 o )  ) ) ( type_70d61b91_784c_4129_b296_126579469460_Class39 ( obj_cae3fe45_bb82_4e9f_b09e_ee6fef3ab717 o )  ) )):named c10))
(assert (! (exists ((o Int)) (and (and (and (and (and (and (and (and (and ( type_70d61b91_784c_4129_b296_126579469460_Class19 ( obj_cae3fe45_bb82_4e9f_b09e_ee6fef3ab717 o )  )  ( type_70d61b91_784c_4129_b296_126579469460_Class45 ( obj_cae3fe45_bb82_4e9f_b09e_ee6fef3ab717 o )  ) ) ( type_70d61b91_784c_4129_b296_126579469460_Class12 ( obj_cae3fe45_bb82_4e9f_b09e_ee6fef3ab717 o )  ) ) ( type_70d61b91_784c_4129_b296_126579469460_Class55 ( obj_cae3fe45_bb82_4e9f_b09e_ee6fef3ab717 o )  ) ) ( type_70d61b91_784c_4129_b296_126579469460_Class33 ( obj_cae3fe45_bb82_4e9f_b09e_ee6fef3ab717 o )  ) ) ( type_70d61b91_784c_4129_b296_126579469460_Class22 ( obj_cae3fe45_bb82_4e9f_b09e_ee6fef3ab717 o )  ) ) ( type_70d61b91_784c_4129_b296_126579469460_Class29 ( obj_cae3fe45_bb82_4e9f_b09e_ee6fef3ab717 o )  ) ) ( type_70d61b91_784c_4129_b296_126579469460_Class39 ( obj_cae3fe45_bb82_4e9f_b09e_ee6fef3ab717 o )  ) ) ( type_70d61b91_784c_4129_b296_126579469460_Class50 ( obj_cae3fe45_bb82_4e9f_b09e_ee6fef3ab717 o )  ) ) ( type_70d61b91_784c_4129_b296_126579469460_Class41 ( obj_cae3fe45_bb82_4e9f_b09e_ee6fef3ab717 o )  ) )):named c11))
(assert (! (exists ((o Int)) ( type_70d61b91_784c_4129_b296_126579469460_Class2 ( obj_cae3fe45_bb82_4e9f_b09e_ee6fef3ab717 o )  ) ):named c12))
(assert (! (exists ((o Int)) ( type_70d61b91_784c_4129_b296_126579469460_Class20 ( obj_cae3fe45_bb82_4e9f_b09e_ee6fef3ab717 o )  ) ):named c13))
(assert (! (exists ((o Int)) (and (and (and (and (and (and (and (and (and ( type_70d61b91_784c_4129_b296_126579469460_Class21 ( obj_cae3fe45_bb82_4e9f_b09e_ee6fef3ab717 o )  )  ( type_70d61b91_784c_4129_b296_126579469460_Class45 ( obj_cae3fe45_bb82_4e9f_b09e_ee6fef3ab717 o )  ) ) ( type_70d61b91_784c_4129_b296_126579469460_Class12 ( obj_cae3fe45_bb82_4e9f_b09e_ee6fef3ab717 o )  ) ) ( type_70d61b91_784c_4129_b296_126579469460_Class33 ( obj_cae3fe45_bb82_4e9f_b09e_ee6fef3ab717 o )  ) ) ( type_70d61b91_784c_4129_b296_126579469460_Class22 ( obj_cae3fe45_bb82_4e9f_b09e_ee6fef3ab717 o )  ) ) ( type_70d61b91_784c_4129_b296_126579469460_Class16 ( obj_cae3fe45_bb82_4e9f_b09e_ee6fef3ab717 o )  ) ) ( type_70d61b91_784c_4129_b296_126579469460_Class29 ( obj_cae3fe45_bb82_4e9f_b09e_ee6fef3ab717 o )  ) ) ( type_70d61b91_784c_4129_b296_126579469460_Class39 ( obj_cae3fe45_bb82_4e9f_b09e_ee6fef3ab717 o )  ) ) ( type_70d61b91_784c_4129_b296_126579469460_Class41 ( obj_cae3fe45_bb82_4e9f_b09e_ee6fef3ab717 o )  ) ) ( type_70d61b91_784c_4129_b296_126579469460_Class51 ( obj_cae3fe45_bb82_4e9f_b09e_ee6fef3ab717 o )  ) )):named c14))
(assert (! (exists ((o Int)) (and ( type_70d61b91_784c_4129_b296_126579469460_Class22 ( obj_cae3fe45_bb82_4e9f_b09e_ee6fef3ab717 o )  )  ( type_70d61b91_784c_4129_b296_126579469460_Class39 ( obj_cae3fe45_bb82_4e9f_b09e_ee6fef3ab717 o )  ) )):named c15))
(assert (! (exists ((o Int)) (and (and (and (and ( type_70d61b91_784c_4129_b296_126579469460_Class23 ( obj_cae3fe45_bb82_4e9f_b09e_ee6fef3ab717 o )  )  ( type_70d61b91_784c_4129_b296_126579469460_Class25 ( obj_cae3fe45_bb82_4e9f_b09e_ee6fef3ab717 o )  ) ) ( type_70d61b91_784c_4129_b296_126579469460_Class24 ( obj_cae3fe45_bb82_4e9f_b09e_ee6fef3ab717 o )  ) ) ( type_70d61b91_784c_4129_b296_126579469460_Class39 ( obj_cae3fe45_bb82_4e9f_b09e_ee6fef3ab717 o )  ) ) ( type_70d61b91_784c_4129_b296_126579469460_Class5 ( obj_cae3fe45_bb82_4e9f_b09e_ee6fef3ab717 o )  ) )):named c16))
(assert (! (exists ((o Int)) (and (and ( type_70d61b91_784c_4129_b296_126579469460_Class24 ( obj_cae3fe45_bb82_4e9f_b09e_ee6fef3ab717 o )  )  ( type_70d61b91_784c_4129_b296_126579469460_Class25 ( obj_cae3fe45_bb82_4e9f_b09e_ee6fef3ab717 o )  ) ) ( type_70d61b91_784c_4129_b296_126579469460_Class39 ( obj_cae3fe45_bb82_4e9f_b09e_ee6fef3ab717 o )  ) )):named c17))
(assert (! (exists ((o Int)) (and ( type_70d61b91_784c_4129_b296_126579469460_Class25 ( obj_cae3fe45_bb82_4e9f_b09e_ee6fef3ab717 o )  )  ( type_70d61b91_784c_4129_b296_126579469460_Class39 ( obj_cae3fe45_bb82_4e9f_b09e_ee6fef3ab717 o )  ) )):named c18))
(assert (! (exists ((o Int)) ( type_70d61b91_784c_4129_b296_126579469460_Class26 ( obj_cae3fe45_bb82_4e9f_b09e_ee6fef3ab717 o )  ) ):named c19))
(assert (! (exists ((o Int)) ( type_70d61b91_784c_4129_b296_126579469460_Class27 ( obj_cae3fe45_bb82_4e9f_b09e_ee6fef3ab717 o )  ) ):named c20))
(assert (! (exists ((o Int)) (and (and (and (and (and (and (and ( type_70d61b91_784c_4129_b296_126579469460_Class28 ( obj_cae3fe45_bb82_4e9f_b09e_ee6fef3ab717 o )  )  ( type_70d61b91_784c_4129_b296_126579469460_Class45 ( obj_cae3fe45_bb82_4e9f_b09e_ee6fef3ab717 o )  ) ) ( type_70d61b91_784c_4129_b296_126579469460_Class12 ( obj_cae3fe45_bb82_4e9f_b09e_ee6fef3ab717 o )  ) ) ( type_70d61b91_784c_4129_b296_126579469460_Class33 ( obj_cae3fe45_bb82_4e9f_b09e_ee6fef3ab717 o )  ) ) ( type_70d61b91_784c_4129_b296_126579469460_Class22 ( obj_cae3fe45_bb82_4e9f_b09e_ee6fef3ab717 o )  ) ) ( type_70d61b91_784c_4129_b296_126579469460_Class29 ( obj_cae3fe45_bb82_4e9f_b09e_ee6fef3ab717 o )  ) ) ( type_70d61b91_784c_4129_b296_126579469460_Class39 ( obj_cae3fe45_bb82_4e9f_b09e_ee6fef3ab717 o )  ) ) ( type_70d61b91_784c_4129_b296_126579469460_Class41 ( obj_cae3fe45_bb82_4e9f_b09e_ee6fef3ab717 o )  ) )):named c21))
(assert (! (exists ((o Int)) (and (and (and (and (and (and ( type_70d61b91_784c_4129_b296_126579469460_Class29 ( obj_cae3fe45_bb82_4e9f_b09e_ee6fef3ab717 o )  )  ( type_70d61b91_784c_4129_b296_126579469460_Class45 ( obj_cae3fe45_bb82_4e9f_b09e_ee6fef3ab717 o )  ) ) ( type_70d61b91_784c_4129_b296_126579469460_Class12 ( obj_cae3fe45_bb82_4e9f_b09e_ee6fef3ab717 o )  ) ) ( type_70d61b91_784c_4129_b296_126579469460_Class33 ( obj_cae3fe45_bb82_4e9f_b09e_ee6fef3ab717 o )  ) ) ( type_70d61b91_784c_4129_b296_126579469460_Class22 ( obj_cae3fe45_bb82_4e9f_b09e_ee6fef3ab717 o )  ) ) ( type_70d61b91_784c_4129_b296_126579469460_Class39 ( obj_cae3fe45_bb82_4e9f_b09e_ee6fef3ab717 o )  ) ) ( type_70d61b91_784c_4129_b296_126579469460_Class41 ( obj_cae3fe45_bb82_4e9f_b09e_ee6fef3ab717 o )  ) )):named c22))
(assert (! (exists ((o Int)) (and (and (and ( type_70d61b91_784c_4129_b296_126579469460_Class3 ( obj_cae3fe45_bb82_4e9f_b09e_ee6fef3ab717 o )  )  ( type_70d61b91_784c_4129_b296_126579469460_Class25 ( obj_cae3fe45_bb82_4e9f_b09e_ee6fef3ab717 o )  ) ) ( type_70d61b91_784c_4129_b296_126579469460_Class24 ( obj_cae3fe45_bb82_4e9f_b09e_ee6fef3ab717 o )  ) ) ( type_70d61b91_784c_4129_b296_126579469460_Class39 ( obj_cae3fe45_bb82_4e9f_b09e_ee6fef3ab717 o )  ) )):named c23))
(assert (! (exists ((o Int)) (and ( type_70d61b91_784c_4129_b296_126579469460_Class30 ( obj_cae3fe45_bb82_4e9f_b09e_ee6fef3ab717 o )  )  ( type_70d61b91_784c_4129_b296_126579469460_Class39 ( obj_cae3fe45_bb82_4e9f_b09e_ee6fef3ab717 o )  ) )):named c24))
(assert (! (exists ((o Int)) (and (and (and (and (and ( type_70d61b91_784c_4129_b296_126579469460_Class31 ( obj_cae3fe45_bb82_4e9f_b09e_ee6fef3ab717 o )  )  ( type_70d61b91_784c_4129_b296_126579469460_Class45 ( obj_cae3fe45_bb82_4e9f_b09e_ee6fef3ab717 o )  ) ) ( type_70d61b91_784c_4129_b296_126579469460_Class12 ( obj_cae3fe45_bb82_4e9f_b09e_ee6fef3ab717 o )  ) ) ( type_70d61b91_784c_4129_b296_126579469460_Class33 ( obj_cae3fe45_bb82_4e9f_b09e_ee6fef3ab717 o )  ) ) ( type_70d61b91_784c_4129_b296_126579469460_Class22 ( obj_cae3fe45_bb82_4e9f_b09e_ee6fef3ab717 o )  ) ) ( type_70d61b91_784c_4129_b296_126579469460_Class39 ( obj_cae3fe45_bb82_4e9f_b09e_ee6fef3ab717 o )  ) )):named c25))
(assert (! (exists ((o Int)) ( type_70d61b91_784c_4129_b296_126579469460_Class32 ( obj_cae3fe45_bb82_4e9f_b09e_ee6fef3ab717 o )  ) ):named c26))
(assert (! (exists ((o Int)) (and (and ( type_70d61b91_784c_4129_b296_126579469460_Class33 ( obj_cae3fe45_bb82_4e9f_b09e_ee6fef3ab717 o )  )  ( type_70d61b91_784c_4129_b296_126579469460_Class22 ( obj_cae3fe45_bb82_4e9f_b09e_ee6fef3ab717 o )  ) ) ( type_70d61b91_784c_4129_b296_126579469460_Class39 ( obj_cae3fe45_bb82_4e9f_b09e_ee6fef3ab717 o )  ) )):named c27))
(assert (! (exists ((o Int)) (and (and (and ( type_70d61b91_784c_4129_b296_126579469460_Class34 ( obj_cae3fe45_bb82_4e9f_b09e_ee6fef3ab717 o )  )  ( type_70d61b91_784c_4129_b296_126579469460_Class25 ( obj_cae3fe45_bb82_4e9f_b09e_ee6fef3ab717 o )  ) ) ( type_70d61b91_784c_4129_b296_126579469460_Class24 ( obj_cae3fe45_bb82_4e9f_b09e_ee6fef3ab717 o )  ) ) ( type_70d61b91_784c_4129_b296_126579469460_Class39 ( obj_cae3fe45_bb82_4e9f_b09e_ee6fef3ab717 o )  ) )):named c28))
(assert (! (exists ((o Int)) (and (and ( type_70d61b91_784c_4129_b296_126579469460_Class35 ( obj_cae3fe45_bb82_4e9f_b09e_ee6fef3ab717 o )  )  ( type_70d61b91_784c_4129_b296_126579469460_Class39 ( obj_cae3fe45_bb82_4e9f_b09e_ee6fef3ab717 o )  ) ) ( type_70d61b91_784c_4129_b296_126579469460_Class30 ( obj_cae3fe45_bb82_4e9f_b09e_ee6fef3ab717 o )  ) )):named c29))
(assert (! (exists ((o Int)) ( type_70d61b91_784c_4129_b296_126579469460_Class36 ( obj_cae3fe45_bb82_4e9f_b09e_ee6fef3ab717 o )  ) ):named c30))
(assert (! (exists ((o Int)) ( type_70d61b91_784c_4129_b296_126579469460_Class37 ( obj_cae3fe45_bb82_4e9f_b09e_ee6fef3ab717 o )  ) ):named c31))
(assert (! (exists ((o Int)) ( type_70d61b91_784c_4129_b296_126579469460_Class38 ( obj_cae3fe45_bb82_4e9f_b09e_ee6fef3ab717 o )  ) ):named c32))
(assert (! (exists ((o Int)) ( type_70d61b91_784c_4129_b296_126579469460_Class39 ( obj_cae3fe45_bb82_4e9f_b09e_ee6fef3ab717 o )  ) ):named c33))
(assert (! (exists ((o Int)) ( type_70d61b91_784c_4129_b296_126579469460_Class4 ( obj_cae3fe45_bb82_4e9f_b09e_ee6fef3ab717 o )  ) ):named c34))
(assert (! (exists ((o Int)) (and (and (and (and (and (and (and (and (and ( type_70d61b91_784c_4129_b296_126579469460_Class40 ( obj_cae3fe45_bb82_4e9f_b09e_ee6fef3ab717 o )  )  ( type_70d61b91_784c_4129_b296_126579469460_Class45 ( obj_cae3fe45_bb82_4e9f_b09e_ee6fef3ab717 o )  ) ) ( type_70d61b91_784c_4129_b296_126579469460_Class12 ( obj_cae3fe45_bb82_4e9f_b09e_ee6fef3ab717 o )  ) ) ( type_70d61b91_784c_4129_b296_126579469460_Class55 ( obj_cae3fe45_bb82_4e9f_b09e_ee6fef3ab717 o )  ) ) ( type_70d61b91_784c_4129_b296_126579469460_Class33 ( obj_cae3fe45_bb82_4e9f_b09e_ee6fef3ab717 o )  ) ) ( type_70d61b91_784c_4129_b296_126579469460_Class22 ( obj_cae3fe45_bb82_4e9f_b09e_ee6fef3ab717 o )  ) ) ( type_70d61b91_784c_4129_b296_126579469460_Class29 ( obj_cae3fe45_bb82_4e9f_b09e_ee6fef3ab717 o )  ) ) ( type_70d61b91_784c_4129_b296_126579469460_Class39 ( obj_cae3fe45_bb82_4e9f_b09e_ee6fef3ab717 o )  ) ) ( type_70d61b91_784c_4129_b296_126579469460_Class50 ( obj_cae3fe45_bb82_4e9f_b09e_ee6fef3ab717 o )  ) ) ( type_70d61b91_784c_4129_b296_126579469460_Class41 ( obj_cae3fe45_bb82_4e9f_b09e_ee6fef3ab717 o )  ) )):named c35))
(assert (! (exists ((o Int)) (and (and (and (and (and ( type_70d61b91_784c_4129_b296_126579469460_Class41 ( obj_cae3fe45_bb82_4e9f_b09e_ee6fef3ab717 o )  )  ( type_70d61b91_784c_4129_b296_126579469460_Class45 ( obj_cae3fe45_bb82_4e9f_b09e_ee6fef3ab717 o )  ) ) ( type_70d61b91_784c_4129_b296_126579469460_Class12 ( obj_cae3fe45_bb82_4e9f_b09e_ee6fef3ab717 o )  ) ) ( type_70d61b91_784c_4129_b296_126579469460_Class33 ( obj_cae3fe45_bb82_4e9f_b09e_ee6fef3ab717 o )  ) ) ( type_70d61b91_784c_4129_b296_126579469460_Class22 ( obj_cae3fe45_bb82_4e9f_b09e_ee6fef3ab717 o )  ) ) ( type_70d61b91_784c_4129_b296_126579469460_Class39 ( obj_cae3fe45_bb82_4e9f_b09e_ee6fef3ab717 o )  ) )):named c36))
(assert (! (exists ((o Int)) (and ( type_70d61b91_784c_4129_b296_126579469460_Class42 ( obj_cae3fe45_bb82_4e9f_b09e_ee6fef3ab717 o )  )  ( type_70d61b91_784c_4129_b296_126579469460_Class39 ( obj_cae3fe45_bb82_4e9f_b09e_ee6fef3ab717 o )  ) )):named c37))
(assert (! (exists ((o Int)) ( type_70d61b91_784c_4129_b296_126579469460_Class43 ( obj_cae3fe45_bb82_4e9f_b09e_ee6fef3ab717 o )  ) ):named c38))
(assert (! (exists ((o Int)) (and (and (and (and (and (and (and ( type_70d61b91_784c_4129_b296_126579469460_Class44 ( obj_cae3fe45_bb82_4e9f_b09e_ee6fef3ab717 o )  )  ( type_70d61b91_784c_4129_b296_126579469460_Class45 ( obj_cae3fe45_bb82_4e9f_b09e_ee6fef3ab717 o )  ) ) ( type_70d61b91_784c_4129_b296_126579469460_Class12 ( obj_cae3fe45_bb82_4e9f_b09e_ee6fef3ab717 o )  ) ) ( type_70d61b91_784c_4129_b296_126579469460_Class33 ( obj_cae3fe45_bb82_4e9f_b09e_ee6fef3ab717 o )  ) ) ( type_70d61b91_784c_4129_b296_126579469460_Class22 ( obj_cae3fe45_bb82_4e9f_b09e_ee6fef3ab717 o )  ) ) ( type_70d61b91_784c_4129_b296_126579469460_Class29 ( obj_cae3fe45_bb82_4e9f_b09e_ee6fef3ab717 o )  ) ) ( type_70d61b91_784c_4129_b296_126579469460_Class39 ( obj_cae3fe45_bb82_4e9f_b09e_ee6fef3ab717 o )  ) ) ( type_70d61b91_784c_4129_b296_126579469460_Class41 ( obj_cae3fe45_bb82_4e9f_b09e_ee6fef3ab717 o )  ) )):named c39))
(assert (! (exists ((o Int)) (and (and (and (and ( type_70d61b91_784c_4129_b296_126579469460_Class45 ( obj_cae3fe45_bb82_4e9f_b09e_ee6fef3ab717 o )  )  ( type_70d61b91_784c_4129_b296_126579469460_Class12 ( obj_cae3fe45_bb82_4e9f_b09e_ee6fef3ab717 o )  ) ) ( type_70d61b91_784c_4129_b296_126579469460_Class33 ( obj_cae3fe45_bb82_4e9f_b09e_ee6fef3ab717 o )  ) ) ( type_70d61b91_784c_4129_b296_126579469460_Class22 ( obj_cae3fe45_bb82_4e9f_b09e_ee6fef3ab717 o )  ) ) ( type_70d61b91_784c_4129_b296_126579469460_Class39 ( obj_cae3fe45_bb82_4e9f_b09e_ee6fef3ab717 o )  ) )):named c40))
(assert (! (exists ((o Int)) (and (and ( type_70d61b91_784c_4129_b296_126579469460_Class46 ( obj_cae3fe45_bb82_4e9f_b09e_ee6fef3ab717 o )  )  ( type_70d61b91_784c_4129_b296_126579469460_Class39 ( obj_cae3fe45_bb82_4e9f_b09e_ee6fef3ab717 o )  ) ) ( type_70d61b91_784c_4129_b296_126579469460_Class5 ( obj_cae3fe45_bb82_4e9f_b09e_ee6fef3ab717 o )  ) )):named c41))
(assert (! (exists ((o Int)) ( type_70d61b91_784c_4129_b296_126579469460_Class47 ( obj_cae3fe45_bb82_4e9f_b09e_ee6fef3ab717 o )  ) ):named c42))
(assert (! (exists ((o Int)) (and (and (and (and (and (and (and (and (and ( type_70d61b91_784c_4129_b296_126579469460_Class48 ( obj_cae3fe45_bb82_4e9f_b09e_ee6fef3ab717 o )  )  ( type_70d61b91_784c_4129_b296_126579469460_Class45 ( obj_cae3fe45_bb82_4e9f_b09e_ee6fef3ab717 o )  ) ) ( type_70d61b91_784c_4129_b296_126579469460_Class12 ( obj_cae3fe45_bb82_4e9f_b09e_ee6fef3ab717 o )  ) ) ( type_70d61b91_784c_4129_b296_126579469460_Class55 ( obj_cae3fe45_bb82_4e9f_b09e_ee6fef3ab717 o )  ) ) ( type_70d61b91_784c_4129_b296_126579469460_Class33 ( obj_cae3fe45_bb82_4e9f_b09e_ee6fef3ab717 o )  ) ) ( type_70d61b91_784c_4129_b296_126579469460_Class22 ( obj_cae3fe45_bb82_4e9f_b09e_ee6fef3ab717 o )  ) ) ( type_70d61b91_784c_4129_b296_126579469460_Class29 ( obj_cae3fe45_bb82_4e9f_b09e_ee6fef3ab717 o )  ) ) ( type_70d61b91_784c_4129_b296_126579469460_Class39 ( obj_cae3fe45_bb82_4e9f_b09e_ee6fef3ab717 o )  ) ) ( type_70d61b91_784c_4129_b296_126579469460_Class50 ( obj_cae3fe45_bb82_4e9f_b09e_ee6fef3ab717 o )  ) ) ( type_70d61b91_784c_4129_b296_126579469460_Class41 ( obj_cae3fe45_bb82_4e9f_b09e_ee6fef3ab717 o )  ) )):named c43))
(assert (! (exists ((o Int)) (and (and (and (and (and (and (and (and (and ( type_70d61b91_784c_4129_b296_126579469460_Class49 ( obj_cae3fe45_bb82_4e9f_b09e_ee6fef3ab717 o )  )  ( type_70d61b91_784c_4129_b296_126579469460_Class45 ( obj_cae3fe45_bb82_4e9f_b09e_ee6fef3ab717 o )  ) ) ( type_70d61b91_784c_4129_b296_126579469460_Class12 ( obj_cae3fe45_bb82_4e9f_b09e_ee6fef3ab717 o )  ) ) ( type_70d61b91_784c_4129_b296_126579469460_Class55 ( obj_cae3fe45_bb82_4e9f_b09e_ee6fef3ab717 o )  ) ) ( type_70d61b91_784c_4129_b296_126579469460_Class33 ( obj_cae3fe45_bb82_4e9f_b09e_ee6fef3ab717 o )  ) ) ( type_70d61b91_784c_4129_b296_126579469460_Class22 ( obj_cae3fe45_bb82_4e9f_b09e_ee6fef3ab717 o )  ) ) ( type_70d61b91_784c_4129_b296_126579469460_Class29 ( obj_cae3fe45_bb82_4e9f_b09e_ee6fef3ab717 o )  ) ) ( type_70d61b91_784c_4129_b296_126579469460_Class39 ( obj_cae3fe45_bb82_4e9f_b09e_ee6fef3ab717 o )  ) ) ( type_70d61b91_784c_4129_b296_126579469460_Class50 ( obj_cae3fe45_bb82_4e9f_b09e_ee6fef3ab717 o )  ) ) ( type_70d61b91_784c_4129_b296_126579469460_Class41 ( obj_cae3fe45_bb82_4e9f_b09e_ee6fef3ab717 o )  ) )):named c44))
(assert (! (exists ((o Int)) (and ( type_70d61b91_784c_4129_b296_126579469460_Class5 ( obj_cae3fe45_bb82_4e9f_b09e_ee6fef3ab717 o )  )  ( type_70d61b91_784c_4129_b296_126579469460_Class39 ( obj_cae3fe45_bb82_4e9f_b09e_ee6fef3ab717 o )  ) )):named c45))
(assert (! (exists ((o Int)) (and (and (and (and (and (and (and (and ( type_70d61b91_784c_4129_b296_126579469460_Class50 ( obj_cae3fe45_bb82_4e9f_b09e_ee6fef3ab717 o )  )  ( type_70d61b91_784c_4129_b296_126579469460_Class45 ( obj_cae3fe45_bb82_4e9f_b09e_ee6fef3ab717 o )  ) ) ( type_70d61b91_784c_4129_b296_126579469460_Class12 ( obj_cae3fe45_bb82_4e9f_b09e_ee6fef3ab717 o )  ) ) ( type_70d61b91_784c_4129_b296_126579469460_Class55 ( obj_cae3fe45_bb82_4e9f_b09e_ee6fef3ab717 o )  ) ) ( type_70d61b91_784c_4129_b296_126579469460_Class33 ( obj_cae3fe45_bb82_4e9f_b09e_ee6fef3ab717 o )  ) ) ( type_70d61b91_784c_4129_b296_126579469460_Class22 ( obj_cae3fe45_bb82_4e9f_b09e_ee6fef3ab717 o )  ) ) ( type_70d61b91_784c_4129_b296_126579469460_Class29 ( obj_cae3fe45_bb82_4e9f_b09e_ee6fef3ab717 o )  ) ) ( type_70d61b91_784c_4129_b296_126579469460_Class39 ( obj_cae3fe45_bb82_4e9f_b09e_ee6fef3ab717 o )  ) ) ( type_70d61b91_784c_4129_b296_126579469460_Class41 ( obj_cae3fe45_bb82_4e9f_b09e_ee6fef3ab717 o )  ) )):named c46))
(assert (! (exists ((o Int)) (and (and (and (and (and (and ( type_70d61b91_784c_4129_b296_126579469460_Class51 ( obj_cae3fe45_bb82_4e9f_b09e_ee6fef3ab717 o )  )  ( type_70d61b91_784c_4129_b296_126579469460_Class45 ( obj_cae3fe45_bb82_4e9f_b09e_ee6fef3ab717 o )  ) ) ( type_70d61b91_784c_4129_b296_126579469460_Class12 ( obj_cae3fe45_bb82_4e9f_b09e_ee6fef3ab717 o )  ) ) ( type_70d61b91_784c_4129_b296_126579469460_Class33 ( obj_cae3fe45_bb82_4e9f_b09e_ee6fef3ab717 o )  ) ) ( type_70d61b91_784c_4129_b296_126579469460_Class22 ( obj_cae3fe45_bb82_4e9f_b09e_ee6fef3ab717 o )  ) ) ( type_70d61b91_784c_4129_b296_126579469460_Class16 ( obj_cae3fe45_bb82_4e9f_b09e_ee6fef3ab717 o )  ) ) ( type_70d61b91_784c_4129_b296_126579469460_Class39 ( obj_cae3fe45_bb82_4e9f_b09e_ee6fef3ab717 o )  ) )):named c47))
(assert (! (exists ((o Int)) (and (and (and (and (and ( type_70d61b91_784c_4129_b296_126579469460_Class52 ( obj_cae3fe45_bb82_4e9f_b09e_ee6fef3ab717 o )  )  ( type_70d61b91_784c_4129_b296_126579469460_Class45 ( obj_cae3fe45_bb82_4e9f_b09e_ee6fef3ab717 o )  ) ) ( type_70d61b91_784c_4129_b296_126579469460_Class12 ( obj_cae3fe45_bb82_4e9f_b09e_ee6fef3ab717 o )  ) ) ( type_70d61b91_784c_4129_b296_126579469460_Class33 ( obj_cae3fe45_bb82_4e9f_b09e_ee6fef3ab717 o )  ) ) ( type_70d61b91_784c_4129_b296_126579469460_Class22 ( obj_cae3fe45_bb82_4e9f_b09e_ee6fef3ab717 o )  ) ) ( type_70d61b91_784c_4129_b296_126579469460_Class39 ( obj_cae3fe45_bb82_4e9f_b09e_ee6fef3ab717 o )  ) )):named c48))
(assert (! (exists ((o Int)) ( type_70d61b91_784c_4129_b296_126579469460_Class53 ( obj_cae3fe45_bb82_4e9f_b09e_ee6fef3ab717 o )  ) ):named c49))
(assert (! (exists ((o Int)) ( type_70d61b91_784c_4129_b296_126579469460_Class54 ( obj_cae3fe45_bb82_4e9f_b09e_ee6fef3ab717 o )  ) ):named c50))
(assert (! (exists ((o Int)) (and (and (and (and (and (and (and ( type_70d61b91_784c_4129_b296_126579469460_Class55 ( obj_cae3fe45_bb82_4e9f_b09e_ee6fef3ab717 o )  )  ( type_70d61b91_784c_4129_b296_126579469460_Class45 ( obj_cae3fe45_bb82_4e9f_b09e_ee6fef3ab717 o )  ) ) ( type_70d61b91_784c_4129_b296_126579469460_Class12 ( obj_cae3fe45_bb82_4e9f_b09e_ee6fef3ab717 o )  ) ) ( type_70d61b91_784c_4129_b296_126579469460_Class33 ( obj_cae3fe45_bb82_4e9f_b09e_ee6fef3ab717 o )  ) ) ( type_70d61b91_784c_4129_b296_126579469460_Class22 ( obj_cae3fe45_bb82_4e9f_b09e_ee6fef3ab717 o )  ) ) ( type_70d61b91_784c_4129_b296_126579469460_Class29 ( obj_cae3fe45_bb82_4e9f_b09e_ee6fef3ab717 o )  ) ) ( type_70d61b91_784c_4129_b296_126579469460_Class39 ( obj_cae3fe45_bb82_4e9f_b09e_ee6fef3ab717 o )  ) ) ( type_70d61b91_784c_4129_b296_126579469460_Class41 ( obj_cae3fe45_bb82_4e9f_b09e_ee6fef3ab717 o )  ) )):named c51))
(assert (! (exists ((o Int)) ( type_70d61b91_784c_4129_b296_126579469460_Class6 ( obj_cae3fe45_bb82_4e9f_b09e_ee6fef3ab717 o )  ) ):named c52))
(assert (! (exists ((o Int)) (and (and (and (and (and (and (and (and (and ( type_70d61b91_784c_4129_b296_126579469460_Class7 ( obj_cae3fe45_bb82_4e9f_b09e_ee6fef3ab717 o )  )  ( type_70d61b91_784c_4129_b296_126579469460_Class45 ( obj_cae3fe45_bb82_4e9f_b09e_ee6fef3ab717 o )  ) ) ( type_70d61b91_784c_4129_b296_126579469460_Class12 ( obj_cae3fe45_bb82_4e9f_b09e_ee6fef3ab717 o )  ) ) ( type_70d61b91_784c_4129_b296_126579469460_Class55 ( obj_cae3fe45_bb82_4e9f_b09e_ee6fef3ab717 o )  ) ) ( type_70d61b91_784c_4129_b296_126579469460_Class33 ( obj_cae3fe45_bb82_4e9f_b09e_ee6fef3ab717 o )  ) ) ( type_70d61b91_784c_4129_b296_126579469460_Class22 ( obj_cae3fe45_bb82_4e9f_b09e_ee6fef3ab717 o )  ) ) ( type_70d61b91_784c_4129_b296_126579469460_Class29 ( obj_cae3fe45_bb82_4e9f_b09e_ee6fef3ab717 o )  ) ) ( type_70d61b91_784c_4129_b296_126579469460_Class39 ( obj_cae3fe45_bb82_4e9f_b09e_ee6fef3ab717 o )  ) ) ( type_70d61b91_784c_4129_b296_126579469460_Class50 ( obj_cae3fe45_bb82_4e9f_b09e_ee6fef3ab717 o )  ) ) ( type_70d61b91_784c_4129_b296_126579469460_Class41 ( obj_cae3fe45_bb82_4e9f_b09e_ee6fef3ab717 o )  ) )):named c53))
(assert (! (exists ((o Int)) (and ( type_70d61b91_784c_4129_b296_126579469460_Class8 ( obj_cae3fe45_bb82_4e9f_b09e_ee6fef3ab717 o )  )  ( type_70d61b91_784c_4129_b296_126579469460_Class39 ( obj_cae3fe45_bb82_4e9f_b09e_ee6fef3ab717 o )  ) )):named c54))
(assert (! (exists ((o Int)) ( type_70d61b91_784c_4129_b296_126579469460_Class9 ( obj_cae3fe45_bb82_4e9f_b09e_ee6fef3ab717 o )  ) ):named c55))

 ;end of formula 